
Gurobi 12.0.2 (win64) logging started Tue Jun 10 18:59:32 2025

Set parameter LogFile to value "C:\Ioana\_uni\honours\slp\algorithm\Main_files\results\others\glucogenesis tasks\Task_001_Sample004_irr_gurobi.log"
Gurobi Optimizer version 12.0.2 build v12.0.2rc0 (win64 - Windows 11.0 (26100.2))

CPU model: Intel(R) Core(TM) Ultra 5 125H, instruction set [SSE2|AVX|AVX2]
Thread count: 14 physical cores, 18 logical processors, using up to 18 threads

Non-default parameters:
TimeLimit  2200

Optimize a model with 47226 rows, 34494 columns and 146681 nonzeros
Model fingerprint: 0xef2bf28e
Variable types: 17249 continuous, 17245 integer (17245 binary)
Coefficient statistics:
  Matrix range     [1e-04, 8e+04]
  Objective range  [1e-04, 3e+00]
  Bounds range     [1e+00, 1e+03]
  RHS range        [1e+00, 1e+00]
Found heuristic solution: objective 0.8771930
Presolve removed 47226 rows and 34494 columns
Presolve time: 0.28s
Presolve: All rows and columns removed

Explored 0 nodes (0 simplex iterations) in 0.30 seconds (0.35 work units)
Thread count was 1 (of 18 available processors)

Solution count 1: 0.877193 

Optimal solution found (tolerance 1.00e-04)
Best objective 8.771929824561e-01, best bound 8.771929824561e-01, gap 0.0000%

Gurobi 12.0.2 (win64) logging started Tue Jun 10 19:56:48 2025

Set parameter LogFile to value "C:\Ioana\_uni\honours\slp\algorithm\Main_files\results\others\glucogenesis tasks\Task_001_Sample004_irr_gurobi.log"
Gurobi Optimizer version 12.0.2 build v12.0.2rc0 (win64 - Windows 11.0 (26100.2))

CPU model: Intel(R) Core(TM) Ultra 5 125H, instruction set [SSE2|AVX|AVX2]
Thread count: 14 physical cores, 18 logical processors, using up to 18 threads

Non-default parameters:
TimeLimit  2200

Optimize a model with 47226 rows, 34511 columns and 146698 nonzeros
Model fingerprint: 0x1b965931
Variable types: 17266 continuous, 17245 integer (17245 binary)
Coefficient statistics:
  Matrix range     [1e-04, 8e+04]
  Objective range  [1e-04, 3e+00]
  Bounds range     [1e+00, 1e+03]
  RHS range        [1e+00, 1e+00]
Presolve removed 30823 rows and 21558 columns
Presolve time: 0.32s
Presolved: 16403 rows, 12953 columns, 54581 nonzeros
Variable types: 6410 continuous, 6543 integer (6543 binary)

Root relaxation: objective 5.945225e-03, 2705 iterations, 0.17 seconds (0.30 work units)

    Nodes    |    Current Node    |     Objective Bounds      |     Work
 Expl Unexpl |  Obj  Depth IntInf | Incumbent    BestBd   Gap | It/Node Time

     0     0    0.00595    0   21          -    0.00595      -     -    0s
H    0     0                       4.7380232    0.00595   100%     -    0s
     0     0    0.09770    0   68    4.73802    0.09770  97.9%     -    0s
     0     0    0.88278    0   45    4.73802    0.88278  81.4%     -    1s
     0     0    0.88278    0   46    4.73802    0.88278  81.4%     -    1s
     0     0    1.02614    0   65    4.73802    1.02614  78.3%     -    1s
     0     0    1.02614    0   69    4.73802    1.02614  78.3%     -    1s
     0     0    1.02614    0   71    4.73802    1.02614  78.3%     -    1s
H    0     0                       4.7380232    1.02614  78.3%     -    1s
     0     0    1.03109    0   79    4.73802    1.03109  78.2%     -    1s
     0     0    1.75862    0   78    4.73802    1.75862  62.9%     -    2s
     0     0    1.75862    0   75    4.73802    1.75862  62.9%     -    2s
     0     0    1.75867    0   70    4.73802    1.75867  62.9%     -    2s
     0     0    1.75867    0   71    4.73802    1.75867  62.9%     -    2s
     0     0    1.76051    0   74    4.73802    1.76051  62.8%     -    2s
     0     0    1.76051    0   74    4.73802    1.76051  62.8%     -    2s
     0     2    1.76054    0   74    4.73802    1.76054  62.8%     -    3s
H   34    16                       4.7380232    2.26465  52.2%   146    3s
   168    59    2.70482   12   35    4.73802    2.35014  50.4%  97.9    5s

Cutting planes:
  Cover: 22
  Implied bound: 22
  MIR: 46
  Flow cover: 130
  Flow path: 32
  GUB cover: 1
  Inf proof: 6
  Network: 54
  Relax-and-lift: 4

Explored 572 nodes (64932 simplex iterations) in 8.39 seconds (9.34 work units)
Thread count was 18 (of 18 available processors)

Solution count 2: 4.73802 4.73802 

Optimal solution found (tolerance 1.00e-04)
Best objective 4.738023236968e+00, best bound 4.738023236820e+00, gap 0.0000%
